2 30
744 669 
0 42 48 19 66 29 56 1
1 39 24 55 67 51 29 2
2 88 98 89 69 100 1 2
3 16 91 93 46 76 55 1
4 30 60 6 3 23 4 1
5 57 62 58 16 22 75 2
6 94 25 42 52 17 28 1
7 76 12 8 50 58 73 2
8 35 29 95 4 46 32 2
9 23 54 91 9 9 25 2
10 95 56 88 2 59 81 1
11 83 7 56 18 3 42 2
12 3 100 64 43 38 28 2
13 98 48 39 95 63 18 2
14 99 17 72 51 61 56 1
15 76 81 21 3 31 88 1
16 78 29 31 16 68 100 1
17 34 40 71 35 80 23 2
18 15 49 51 72 83 19 2
19 14 62 2 37 98 82 1
20 78 57 74 56 100 21 2
21 47 56 8 14 64 70 2
22 8 40 61 91 24 46 2
23 48 67 41 41 52 44 1
24 5 21 50 39 91 74 1
25 55 12 19 27 68 88 1
26 100 42 29 77 52 12 2
27 56 56 16 94 60 25 2
28 2 78 15 100 1 99 2
29 1 67 9 46 51 12 2
